; benchmark generated from python API
(set-info :status unknown)
(declare-fun strlen_72_64 () (_ BitVec 64))
(declare-fun args_0_8 () (_ BitVec 8))
(declare-fun strlen_74_64 () (_ BitVec 64))
(declare-fun args_1_8 () (_ BitVec 8))
(declare-fun strlen_78_64 () (_ BitVec 64))
(declare-fun args_2_8 () (_ BitVec 8))
(declare-fun sigaction_oldact_174_1216 () (_ BitVec 1216))
(declare-fun sigaction_oldact_180_1216 () (_ BitVec 1216))
(declare-fun sigaction_oldact_193_1216 () (_ BitVec 1216))
(declare-fun sigaction_oldact_213_1216 () (_ BitVec 1216))
(declare-fun sigaction_oldact_255_1216 () (_ BitVec 1216))
(declare-fun sigaction_oldact_344_1216 () (_ BitVec 1216))
(declare-fun sigaction_oldact_530_1216 () (_ BitVec 1216))
(declare-fun sigaction_oldact_856_1216 () (_ BitVec 1216))
(declare-fun sigaction_oldact_1603_1216 () (_ BitVec 1216))
(declare-fun sigaction_oldact_2917_1216 () (_ BitVec 1216))
(assert
 (= (_ bv1 64) strlen_72_64))
(assert
 (let (($x69 (= (_ bv0 8) args_0_8)))
 (not $x69)))
(assert
 (let (($x190 (= (_ bv1 64) strlen_74_64)))
 (not $x190)))
(assert
 (let ((?x365 (bvadd (_ bv576460752303357826 64) strlen_74_64)))
 (let (($x347 (= (_ bv0 8) args_1_8)))
 (let ((?x355 (ite $x347 (_ bv576460752303357826 64) (_ bv576460752303357827 64))))
 (= ?x355 ?x365)))))
(assert
 (let (($x369 (= (_ bv0 8) args_2_8)))
 (let ((?x373 (ite $x369 (_ bv576460752303357828 64) (_ bv576460752303357829 64))))
 (let ((?x375 (bvsub ?x373 (_ bv576460752303357828 64))))
 (= ?x375 strlen_78_64)))))
(assert
 (let ((?x1768 ((_ extract 127 120) sigaction_oldact_174_1216)))
 (let ((?x2294 (bvand ?x1768 (_ bv4 8))))
 (= (_ bv0 8) ?x2294))))
(assert
 (let ((?x2475 ((_ extract 127 120) sigaction_oldact_180_1216)))
 (let ((?x2558 (bvand ?x2475 (_ bv4 8))))
 (= (_ bv0 8) ?x2558))))
(assert
 (let ((?x3163 ((_ extract 127 120) sigaction_oldact_193_1216)))
 (let ((?x3169 (bvand ?x3163 (_ bv4 8))))
 (= (_ bv0 8) ?x3169))))
(assert
 (let ((?x4444 ((_ extract 127 120) sigaction_oldact_213_1216)))
 (let ((?x4469 (bvand ?x4444 (_ bv4 8))))
 (and (distinct (_ bv0 8) ?x4469) true))))
(assert
 (let ((?x7326 ((_ extract 127 120) sigaction_oldact_255_1216)))
 (let ((?x7351 (bvand ?x7326 (_ bv4 8))))
 (and (distinct (_ bv0 8) ?x7351) true))))
(assert
 (let ((?x13327 ((_ extract 127 120) sigaction_oldact_344_1216)))
 (let ((?x13352 (bvand ?x13327 (_ bv4 8))))
 (and (distinct (_ bv0 8) ?x13352) true))))
(assert
 (let ((?x26858 ((_ extract 127 120) sigaction_oldact_530_1216)))
 (let ((?x26883 (bvand ?x26858 (_ bv4 8))))
 (= (_ bv0 8) ?x26883))))
(assert
 (let ((?x49469 ((_ extract 127 120) sigaction_oldact_856_1216)))
 (let ((?x49485 (bvand ?x49469 (_ bv4 8))))
 (and (distinct (_ bv0 8) ?x49485) true))))
(assert
 (let ((?x91725 ((_ extract 127 120) sigaction_oldact_1603_1216)))
 (let ((?x91745 (bvand ?x91725 (_ bv4 8))))
 (= (_ bv0 8) ?x91745))))
(assert
 (let ((?x166620 ((_ extract 127 120) sigaction_oldact_2917_1216)))
 (let ((?x166636 (bvand ?x166620 (_ bv4 8))))
 (= (_ bv0 8) ?x166636))))
(minimize sigaction_oldact_180_1216)
(minimize sigaction_oldact_530_1216)
(maximize strlen_74_64)
(maximize args_0_8)
(maximize args_2_8)
(minimize args_2_8)
(minimize sigaction_oldact_1603_1216)
(minimize sigaction_oldact_856_1216)
(maximize sigaction_oldact_1603_1216)
(minimize strlen_74_64)
(minimize sigaction_oldact_255_1216)
(minimize args_1_8)
(minimize sigaction_oldact_2917_1216)
(minimize sigaction_oldact_174_1216)
(maximize sigaction_oldact_2917_1216)
(check-sat)
(get-objectives)
